     Program PWSCF v.7.0 starts on  1Jul2025 at 12:31:14

     Reading input from espresso.pwi
Warning: card &CELL ignored
Warning: card / ignored

     Current dimensions of program PWSCF are:
     Max number of different atomic species (ntypx) = 10
     Max number of k-points (npk) =  40000
     Max angular momentum in pseudopotentials (lmaxx) =  4
     file Fe.pbe-spn-kjpaw_psl.0.2.1.UPF: wavefunction(s)  3D renormalized

     IMPORTANT: XC functional enforced from input :
     Exchange-correlation= PBE
                           (   1   4   3   4   0   0   0)
     Any further DFT definition will be discarded
     Please, verify this is what you really want

     Found identity + ( -0.5000  0.0000  0.0000) symmetry
     This is a supercell, fractional translations are disabled
     Message from routine setup:
     using ibrav=0 with symmetry is DISCOURAGED, use correct ibrav instead

     Subspace diagonalization in iterative solution of the eigenvalue problem:
     a serial algorithm will be used

     Using Slab Decomposition

     bravais-lattice index     =            0
     lattice parameter (alat)  =      10.6996  a.u.
     unit-cell volume          =    2753.8338 (a.u.)^3
     number of atoms/cell      =            8
     number of atomic types    =            1
     number of electrons       =       128.00
     number of Kohn-Sham states=           77
     kinetic-energy cutoff     =      63.9261  Ry
     charge density cutoff     =     781.7369  Ry
     scf convergence threshold =      1.0E-06
     mixing beta               =       0.7000
     number of iterations used =            8  plain     mixing
     energy convergence thresh.=      1.0E-04
     force convergence thresh. =      1.0E-03
     Exchange-correlation= PBE
                           (   1   4   3   4   0   0   0)
     nstep                     =           50

     celldm(1)=  10.699629  celldm(2)=   0.000000  celldm(3)=   0.000000
     celldm(4)=   0.000000  celldm(5)=   0.000000  celldm(6)=   0.000000

     crystal axes: (cart. coord. in units of alat)
               a(1) = (   1.000000   0.000000   0.000000 )
               a(2) = (   0.500000   0.707107   0.000000 )
               a(3) = (   0.000000   0.000000   3.179410 )

     reciprocal axes: (cart. coord. in units 2 pi/alat)
               b(1) = (  1.000000 -0.707107  0.000000 )
               b(2) = (  0.000000  1.414214  0.000000 )
               b(3) = (  0.000000  0.000000  0.314524 )

     PseudoPot. # 1 for Fe read from file:
     /home/lekia.p/SSSP_1.3.0_PBE_efficiency/Fe.pbe-spn-kjpaw_psl.0.2.1.UPF
     MD5 check sum: e86618425769142926afa95317d90200
     Pseudo is Projector augmented-wave + core cor, Zval = 16.0
     Generated using "atomic" code by A. Dal Corso  v.5.0.99 svn rev. 10869
     Shape of augmentation charge: PSQ
     Using radial grid of 1191 points,  6 beta functions with:
                l(1) =   0
                l(2) =   0
                l(3) =   1
                l(4) =   1
                l(5) =   2
                l(6) =   2
     Q(r) pseudized with 0 coefficients

     atomic species   valence    mass     pseudopotential
        Fe            16.00    55.84500     Fe( 1.00)

      4 Sym. Ops. (no inversion) found

   Cartesian axes

     site n.     atom                  positions (alat units)
         1           Fe  tau(   1) = (   0.0000000   0.3535534   1.4129283  )
         2           Fe  tau(   2) = (   0.5000000   0.3535534   1.4129283  )
         3           Fe  tau(   3) = (   0.2500000   0.7071068   1.4129283  )
         4           Fe  tau(   4) = (   0.7500000   0.7071068   1.4129283  )
         5           Fe  tau(   5) = (   0.0000000   0.0000000   1.7664817  )
         6           Fe  tau(   6) = (   0.5000000   0.0000000   1.7664817  )
         7           Fe  tau(   7) = (   0.2500000   0.3535534   1.7664817  )
         8           Fe  tau(   8) = (   0.7500000   0.3535534   1.7664817  )

     number of k points=     4  Marzari-Vanderbilt smearing, width (Ry)=  0.0300
                       cart. coord. in units 2pi/alat
        k(    1) = (   0.0000000   0.0000000   0.0000000), wk =   0.2222222
        k(    2) = (   0.0000000   0.4714045   0.0000000), wk =   0.4444444
        k(    3) = (   0.3333333  -0.2357023   0.0000000), wk =   0.8888889
        k(    4) = (   0.3333333  -0.7071068   0.0000000), wk =   0.4444444

     Check: negative core charge=   -0.000008

     Initial potential from superposition of free atoms

     starting charge     127.9965, renormalised to     128.0000

     negative rho (up, down):  2.426E-04 0.000E+00
     Starting wfcs are  104 randomized atomic wfcs
     Checking if some PAW data can be deallocated...

     Self-consistent Calculation

     iteration #  1     ecut=    63.93 Ry     beta= 0.70
     Davidson diagonalization with overlap
     ethr =  1.00E-02,  avg # of iterations =  2.0

     Threshold (ethr) on eigenvalues was too large:
     Diagonalizing with lowered threshold

     Davidson diagonalization with overlap
     ethr =  9.64E-04,  avg # of iterations =  4.0

     negative rho (up, down):  1.550E-04 0.000E+00

     total energy              =   -2632.54904236 Ry
     estimated scf accuracy    <       1.24071099 Ry

[...]

     End of self-consistent calculation

          k = 0.0000 0.0000 0.0000 ( 23805 PWs)   bands (ev):

   -86.7113 -86.6705 -86.6499 -86.6499 -86.6498 -86.6498 -86.6346 -86.6048
   -52.9740 -52.9355 -52.9355 -52.9355 -52.9355 -52.9132 -52.8327 -52.7812
   -52.7495 -52.6897 -52.6722 -52.6540 -52.6540 -52.6540 -52.6540 -52.6002
   -52.5787 -52.5787 -52.5787 -52.5787 -52.5724 -52.5723 -52.5629 -52.5331
    -6.7061  -4.2237  -3.3344  -3.3344  -3.3344  -3.3344  -3.3153  -3.2419
    -3.0155  -2.1335  -2.1334  -2.1334  -2.1334  -2.1167  -1.5281  -1.4712
    -1.2236  -0.7900  -0.7491  -0.4588  -0.3174  -0.3174  -0.3173  -0.3173
     0.0105   0.1463   0.2279   0.3526   0.3526   0.3526   0.3526   0.4225
     0.4784   0.5901   0.6353   0.8102   0.8102   0.8102   0.8103   0.9015
     0.9774   1.3683   1.5109   2.3429   2.3430

[...]

     the Fermi energy is     0.2648 ev

!    total energy              =   -2633.27149443 Ry

     total all-electron energy =    -20363.643778 Ry
     estimated scf accuracy    <       0.00000022 Ry
     smearing contrib. (-TS)   =      -0.03920218 Ry
     internal energy E=F+TS    =   -2633.23229225 Ry

     The total energy is F=E-TS. E is the sum of the following terms:
     one-electron contribution =  -10061.30894648 Ry
     hartree contribution      =    5029.71384393 Ry
     xc contribution           =    -276.76100372 Ry
     ewald contribution        =    3284.31463922 Ry
     one-center paw contrib.   =    -609.19082519 Ry

     convergence has been achieved in  21 iterations

[...]

     Forces acting on atoms (cartesian axes, Ry/au):

     atom    1 type  1   force =     0.00000000   -0.00003187    0.04562457
     atom    2 type  1   force =    -0.00000000    0.00003187    0.04562457
     atom    3 type  1   force =     0.00004903    0.00000000    0.04553926
     atom    4 type  1   force =    -0.00004903    0.00000000    0.04553926
     atom    5 type  1   force =     0.00000000    0.00000000   -0.04557725
     atom    6 type  1   force =     0.00000000    0.00000000   -0.04556048
     atom    7 type  1   force =     0.00000000    0.00000000   -0.04559497
     atom    8 type  1   force =     0.00000000    0.00000000   -0.04559497

     Total force =     0.128925     Total SCF correction =     0.002580

     Computing stress (Cartesian axis) and pressure

     negative rho (up, down):  1.854E-04 0.000E+00
          total   stress  (Ry/bohr**3)                   (kbar)     P=      -67.44
  -0.00078268   0.00000000   0.00000000         -115.14        0.00        0.00
   0.00000000  -0.00030478   0.00000000            0.00      -44.83        0.00
   0.00000000   0.00000000  -0.00028791            0.00        0.00      -42.35

     BFGS Geometry Optimization
     Energy error            =      0.0E+00 Ry
     Gradient error          =      4.6E-02 Ry/Bohr

     number of scf cycles    =   1
     number of bfgs steps    =   0

     energy             new  =   -2633.2714944262 Ry

     new trust radius        =       0.0456245861 bohr
     new conv_thr            =       0.0000010000 Ry

ATOMIC_POSITIONS (angstrom)
Fe            0.0000000000        2.0018024370        8.0241434853
Fe            2.8310000000        2.0018361630        8.0241434853
Fe            1.4155259433        4.0036386000        8.0240983400
Fe            4.2464740567        4.0036386000        8.0240983400
Fe            0.0000000000        0.0000000000        9.9777008567
Fe            2.8310000000        0.0000000000        9.9777097314
Fe            1.4155000000        2.0018193000        9.9776914807
Fe            4.2465000000        2.0018193000        9.9776914807

     Writing config-only to output data dir ./pwscf.save/
     NEW-OLD atomic charge density approx. for the potential

[...]

     Energy error            =      1.5E-02 Ry
     Gradient error          =      3.8E-02 Ry/Bohr

[...]

     energy             old  =   -2633.2714944262 Ry
     energy             new  =   -2633.2866587462 Ry

     CASE: energy            _new < energy            _old

     WARNING: bfgs curvature condition failed, Theta= 0.973
     new trust radius        =       0.0501870447 bohr
     new conv_thr            =       0.0000003785 Ry

[...]

     Total force =     0.019556     Total SCF correction =     0.000618

[...]

     Total force =     0.002883     Total SCF correction =     0.000855
     SCF correction compared to forces is large: reduce conv_thr to get better values

[...]

     number of scf cycles    =   5
     number of bfgs steps    =   4

     energy             old  =   -2633.3094499460 Ry
     energy             new  =   -2633.3100802250 Ry

     CASE: energy            _new < energy            _old

     new trust radius        =       0.0034714309 bohr
     new conv_thr            =       0.0000000107 Ry

ATOMIC_POSITIONS (angstrom)
Fe            0.0000000000        2.0018189948        8.1022217836
Fe            2.8310000000        2.0018196052        8.1022217836
Fe            1.4157200064        4.0036386000        8.1020885655
Fe            4.2462799936        4.0036386000        8.1020885655
Fe            0.0000000000        0.0000000000        9.8999061209
Fe            2.8310000000        0.0000000000        9.8990514545
Fe            1.4155000000        2.0018193000        9.8998494633
Fe            4.2465000000        2.0018193000        9.8998494633

     Writing config-only to output data dir ./pwscf.save/
     NEW-OLD atomic charge density approx. for the potential

     Check: negative core charge=   -0.000008

[...]

     Self-consistent Calculation

[...]

     Threshold (ethr) on eigenvalues was too large:
     Diagonalizing with lowered threshold

     Davidson diagonalization with overlap
     ethr =  7.84E-08,  avg # of iterations =  4.2

[...]

     total energy              =   -2633.31009384 Ry
     estimated scf accuracy    <       0.00000005 Ry

     iteration # 11     ecut=    63.93 Ry     beta= 0.70
     Davidson diagonalization with overlap
     ethr =  3.94E-11,  avg # of iterations =  2.0

[...]

     End of self-consistent calculation

[...]

          k = 0.3333-0.7071 0.0000 ( 23756 PWs)   bands (ev):

   -86.7255 -86.7198 -86.7196 -86.6784 -86.6734 -86.6491 -86.6489 -86.6489
   -52.9532 -52.9280 -52.9197 -52.9195 -52.9110 -52.9071 -52.9069 -52.8888
   -52.8764 -52.7962 -52.7792 -52.7792 -52.6880 -52.6880 -52.6697 -52.6428
   -52.6405 -52.6368 -52.6368 -52.6368 -52.5835 -52.5549 -52.5549 -52.5548
    -4.9308  -4.4502  -4.4502  -3.1050  -2.9280  -2.7264  -2.6528  -2.6522
    -2.6255  -2.4543  -2.3661  -2.3660  -2.0471  -2.0469  -1.9498  -1.8129
    -1.5293  -1.4404  -1.4400  -1.3841  -1.2059  -1.2056  -1.0721  -0.7837
    -0.6312  -0.2726  -0.2726  -0.2200  -0.0702   0.0040   0.0040   0.3000
     0.4190   0.4190   0.4200   0.4201   0.4824   0.5577   0.6338   0.6417
     0.6688   1.0136   1.0140   1.8422   2.3129

     the Fermi energy is     0.3061 ev

!    total energy              =   -2633.31009384 Ry

     total all-electron energy =    -20363.682378 Ry
     estimated scf accuracy    <          5.5E-09 Ry
     smearing contrib. (-TS)   =      -0.03984970 Ry
     internal energy E=F+TS    =   -2633.27024414 Ry

     The total energy is F=E-TS. E is the sum of the following terms:
     one-electron contribution =  -10439.08454502 Ry
     hartree contribution      =    5218.46472416 Ry
     xc contribution           =    -277.12954232 Ry
     ewald contribution        =    3473.68343425 Ry
     one-center paw contrib.   =    -609.20431521 Ry

     convergence has been achieved in  11 iterations

     negative rho (up, down):  2.049E-04 0.000E+00

     Forces acting on atoms (cartesian axes, Ry/au):

     atom    1 type  1   force =     0.00000000    0.00005982    0.00003355
     atom    2 type  1   force =     0.00000000   -0.00005982    0.00003355
     atom    3 type  1   force =     0.00010295    0.00000000   -0.00002141
     atom    4 type  1   force =    -0.00010295    0.00000000   -0.00002141
     atom    5 type  1   force =     0.00000000    0.00000000   -0.00001108
     atom    6 type  1   force =     0.00000000    0.00000000    0.00004038
     atom    7 type  1   force =     0.00000000    0.00000000   -0.00002679
     atom    8 type  1   force =     0.00000000    0.00000000   -0.00002679

     Total force =     0.000186     Total SCF correction =     0.000597
     SCF correction compared to forces is large: reduce conv_thr to get better values

     Computing stress (Cartesian axis) and pressure

     negative rho (up, down):  2.049E-04 0.000E+00
          total   stress  (Ry/bohr**3)                   (kbar)     P=      -39.09
  -0.00054690   0.00000000   0.00000000          -80.45        0.00        0.00
   0.00000000  -0.00021379   0.00000000            0.00      -31.45        0.00
   0.00000000   0.00000000  -0.00003641            0.00        0.00       -5.36

     Energy error            =      1.4E-05 Ry
     Gradient error          =      1.0E-04 Ry/Bohr

     bfgs converged in   6 scf cycles and   5 bfgs steps
     (criteria: energy <  1.0E-04 Ry, force <  1.0E-03 Ry/Bohr)

     End of BFGS Geometry Optimization

     Final energy             =   -2633.3100938412 Ry

     File ./pwscf.bfgs deleted, as requested
Begin final coordinates

ATOMIC_POSITIONS (angstrom)
Fe            0.0000000000        2.0018189948        8.1022217836
Fe            2.8310000000        2.0018196052        8.1022217836
Fe            1.4157200064        4.0036386000        8.1020885655
Fe            4.2462799936        4.0036386000        8.1020885655
Fe            0.0000000000        0.0000000000        9.8999061209
Fe            2.8310000000        0.0000000000        9.8990514545
Fe            1.4155000000        2.0018193000        9.8998494633
Fe            4.2465000000        2.0018193000        9.8998494633
End final coordinates

     Writing all to output data dir ./pwscf.save/

     General routines

     Parallel routines

   This run was terminated on:  14: 3:21   1Jul2025

   JOB DONE.