     Program PWSCF v.7.0 starts on  1Jul2025 at 16:25:59

     Reading input from espresso.pwi
Warning: card &CELL ignored
Warning: card / ignored

     Current dimensions of program PWSCF are:
     Max number of different atomic species (ntypx) = 10
     Max number of k-points (npk) =  40000
     Max angular momentum in pseudopotentials (lmaxx) =  4
     file Fe.pbe-spn-kjpaw_psl.0.2.1.UPF: wavefunction(s)  3D renormalized

     IMPORTANT: XC functional enforced from input :
     Exchange-correlation= PBE
                           (   1   4   3   4   0   0   0)
     Any further DFT definition will be discarded
     Please, verify this is what you really want

     Found identity + ( -0.5000  0.0000  0.0000) symmetry
     This is a supercell, fractional translations are disabled
     Message from routine setup:
     using ibrav=0 with symmetry is DISCOURAGED, use correct ibrav instead

     Subspace diagonalization in iterative solution of the eigenvalue problem:
     a serial algorithm will be used

     Using Slab Decomposition

     bravais-lattice index     =            0
     lattice parameter (alat)  =      10.6996  a.u.
     unit-cell volume          =    2753.8338 (a.u.)^3
     number of atoms/cell      =            8
     number of atomic types    =            1
     number of electrons       =       128.00
     number of Kohn-Sham states=           77
     kinetic-energy cutoff     =      50.0000  Ry
     charge density cutoff     =     600.0000  Ry
     scf convergence threshold =      1.0E-05
     mixing beta               =       0.0500
     number of iterations used =            8  plain     mixing
     Exchange-correlation= PBE
                           (   1   4   3   4   0   0   0)

     celldm(1)=  10.699629  celldm(2)=   0.000000  celldm(3)=   0.000000
     celldm(4)=   0.000000  celldm(5)=   0.000000  celldm(6)=   0.000000

     crystal axes: (cart. coord. in units of alat)
               a(1) = (   1.000000   0.000000   0.000000 )
               a(2) = (   0.500000   0.707107   0.000000 )
               a(3) = (   0.000000   0.000000   3.179410 )

     reciprocal axes: (cart. coord. in units 2 pi/alat)
               b(1) = (  1.000000 -0.707107  0.000000 )
               b(2) = (  0.000000  1.414214  0.000000 )
               b(3) = (  0.000000  0.000000  0.314524 )

     PseudoPot. # 1 for Fe read from file:
     /home/lekia.p/SSSP_1.3.0_PBE_efficiency/Fe.pbe-spn-kjpaw_psl.0.2.1.UPF
     MD5 check sum: e86618425769142926afa95317d90200
     Pseudo is Projector augmented-wave + core cor, Zval = 16.0
     Generated using "atomic" code by A. Dal Corso  v.5.0.99 svn rev. 10869
     Shape of augmentation charge: PSQ
     Using radial grid of 1191 points,  6 beta functions with:
                l(1) =   0
                l(2) =   0
                l(3) =   1
                l(4) =   1
                l(5) =   2
                l(6) =   2
     Q(r) pseudized with 0 coefficients

     atomic species   valence    mass     pseudopotential
        Fe            16.00    55.84500     Fe( 1.00)

     Starting magnetic structure
     atomic species   magnetization
        Fe           0.000

      4 Sym. Ops. (no inversion) found

                                    s                        frac. trans.

      isym =  1     identity

 cryst.   s( 1) = (     1          0          0      )
                  (     0          1          0      )
                  (     0          0          1      )

 cart.    s( 1) = (  1.0000000  0.0000000  0.0000000 )
                  (  0.0000000  1.0000000  0.0000000 )
                  (  0.0000000  0.0000000  1.0000000 )

      isym =  2     180 deg rotation - cart. axis [0,0,1]

[...]

      isym =  3     inv. 180 deg rotation - cart. axis [0,1,0]

[...]

      isym =  4     inv. 180 deg rotation - cart. axis [1,0,0]

 cryst.   s( 4) = (    -1          0          0      )
                  (    -1          1          0      )
                  (     0          0          1      )

 cart.    s( 4) = ( -1.0000000  0.0000000  0.0000000 )
                  (  0.0000000  1.0000000  0.0000000 )
                  (  0.0000000  0.0000000  1.0000000 )

   Cartesian axes

     site n.     atom                  positions (alat units)
         1           Fe  tau(   1) = (   0.0000000   0.3535534   1.4129283  )
         2           Fe  tau(   2) = (   0.5000000   0.3535534   1.4129283  )
         3           Fe  tau(   3) = (   0.2500000   0.7071068   1.4129283  )
         4           Fe  tau(   4) = (   0.7500000   0.7071068   1.4129283  )
         5           Fe  tau(   5) = (   0.0000000   0.0000000   1.7664817  )
         6           Fe  tau(   6) = (   0.5000000   0.0000000   1.7664817  )
         7           Fe  tau(   7) = (   0.2500000   0.3535534   1.7664817  )
         8           Fe  tau(   8) = (   0.7500000   0.3535534   1.7664817  )

   Crystallographic axes

     site n.     atom                  positions (cryst. coord.)
         1           Fe  tau(   1) = ( -0.2500000  0.5000000  0.4443995  )
         2           Fe  tau(   2) = (  0.2500000  0.5000000  0.4443995  )
         3           Fe  tau(   3) = ( -0.2500000  1.0000000  0.4443995  )
         4           Fe  tau(   4) = (  0.2500000  1.0000000  0.4443995  )
         5           Fe  tau(   5) = (  0.0000000  0.0000000  0.5556005  )
         6           Fe  tau(   6) = (  0.5000000  0.0000000  0.5556005  )
         7           Fe  tau(   7) = ( -0.0000000  0.5000000  0.5556005  )
         8           Fe  tau(   8) = (  0.5000000  0.5000000  0.5556005  )

     number of k points=     4  Marzari-Vanderbilt smearing, width (Ry)=  0.0300
                       cart. coord. in units 2pi/alat
        k(    1) = (   0.0000000   0.0000000   0.0000000), wk =   0.1111111
        k(    2) = (   0.0000000   0.4714045   0.0000000), wk =   0.2222222
        k(    3) = (   0.3333333  -0.2357023   0.0000000), wk =   0.4444444
        k(    4) = (   0.3333333  -0.7071068   0.0000000), wk =   0.2222222

                       cryst. coord.
        k(    1) = (   0.0000000   0.0000000   0.0000000), wk =   0.1111111
        k(    2) = (   0.0000000   0.3333333   0.0000000), wk =   0.2222222
        k(    3) = (   0.3333333   0.0000000   0.0000000), wk =   0.4444444
        k(    4) = (   0.3333333  -0.3333333   0.0000000), wk =   0.2222222

     Check: negative core charge=   -0.000006
     Generating pointlists ...
     new r_m :   0.1786 (alat units)  1.9111 (a.u.) for type    1

     Initial potential from superposition of free atoms

     starting charge     127.9965, renormalised to     128.0000

     negative rho (up, down):  5.101E-04 5.101E-04
     Starting wfcs are  104 randomized atomic wfcs
     Checking if some PAW data can be deallocated...

     Self-consistent Calculation

     iteration #  1     ecut=    50.00 Ry     beta= 0.05
     Davidson diagonalization with overlap

     ethr =  1.00E-02,  avg # of iterations =  2.0

     Threshold (ethr) on eigenvalues was too large:
     Diagonalizing with lowered threshold

     Davidson diagonalization with overlap

[...]

     negative rho (up, down):  5.138E-04 5.137E-04

     total energy              =   -2633.36727223 Ry
     estimated scf accuracy    <       1.24890703 Ry

     total magnetization       =     0.00 Bohr mag/cell
     absolute magnetization    =     0.01 Bohr mag/cell

[...]

     total energy              =   -2633.23062809 Ry
     estimated scf accuracy    <       0.00002638 Ry

[...]

     iteration # 18     ecut=    50.00 Ry     beta= 0.05
     Davidson diagonalization with overlap

     ethr =  2.06E-08,  avg # of iterations =  3.5

[...]

     Magnetic moment per site  (integrated on atomic sphere of radius R)
     atom   1 (R=0.179)  charge= 14.3060  magn= -0.0048
     atom   2 (R=0.179)  charge= 14.3060  magn= -0.0048
     atom   3 (R=0.179)  charge= 14.3053  magn= -0.0017
     atom   4 (R=0.179)  charge= 14.3053  magn= -0.0017
     atom   5 (R=0.179)  charge= 14.3059  magn=  0.0042
     atom   6 (R=0.179)  charge= 14.3041  magn=  0.0121
     atom   7 (R=0.179)  charge= 14.3057  magn=  0.0069
     atom   8 (R=0.179)  charge= 14.3057  magn=  0.0069

     End of self-consistent calculation

 ------ SPIN UP ------------

          k = 0.0000 0.0000 0.0000 ( 16429 PWs)   bands (ev):

   -86.6956 -86.6548 -86.6360 -86.6360 -86.6329 -86.6322 -86.6190 -86.5892
   -52.9613 -52.9236 -52.9235 -52.9208 -52.9205 -52.9008 -52.8196 -52.7678
   -52.7362 -52.6763 -52.6591 -52.6412 -52.6411 -52.6409 -52.6407 -52.5871
   -52.5657 -52.5653 -52.5652 -52.5651 -52.5615 -52.5581 -52.5494 -52.5195
    -6.6971  -4.2147  -3.3246  -3.3244  -3.3244  -3.3242  -3.3068  -3.2339
    -3.0054  -2.1235  -2.1234  -2.1233  -2.1232  -2.1078  -1.5188  -1.4611
    -1.2136  -0.7796  -0.7364  -0.4483  -0.3006  -0.3002  -0.3001  -0.2999
     0.0210   0.1559   0.2377   0.3621   0.3622   0.3636   0.3641   0.4337
     0.4884   0.6003   0.6462   0.8211   0.8212   0.8231   0.8233   0.9266
     0.9884   1.3788   1.5214   2.3773   2.3783

     occupation numbers
     1.0000   1.0000   1.0000   1.0000   1.0000   1.0000   1.0000   1.0000
     1.0000   1.0000   1.0000   1.0000   1.0000   1.0000   1.0000   1.0000
     1.0000   1.0000   1.0000   1.0000   1.0000   1.0000   1.0000   1.0000
     1.0000   1.0000   1.0000   1.0000   1.0000   1.0000   1.0000   1.0000
     1.0000   1.0000   1.0000   1.0000   1.0000   1.0000   1.0000   1.0000
     1.0000   1.0000   1.0000   1.0000   1.0000   1.0000   1.0000   1.0000
     1.0001   1.0077   1.0111   1.0620   1.0833   1.0833   1.0833   1.0833
     0.8506   0.6170   0.4677   0.2696   0.2694   0.2675   0.2668   0.1823
     0.1302   0.0589   0.0409   0.0081   0.0081   0.0080   0.0079   0.0026
     0.0012   0.0000   0.0000   0.0000   0.0000

[...]

 ------ SPIN DOWN ----------

[...]

          k = 0.3333-0.7071 0.0000 ( 16408 PWs)   bands (ev):

[...]

     occupation numbers
     1.0000   1.0000   1.0000   1.0000   1.0000   1.0000   1.0000   1.0000
     1.0000   1.0000   1.0000   1.0000   1.0000   1.0000   1.0000   1.0000
     1.0000   1.0000   1.0000   1.0000   1.0000   1.0000   1.0000   1.0000
     1.0000   1.0000   1.0000   1.0000   1.0000   1.0000   1.0000   1.0000
     1.0000   1.0000   1.0000   1.0000   1.0000   1.0000   1.0000   1.0000
     1.0000   1.0000   1.0000   1.0000   1.0000   1.0000   1.0000   1.0000
     1.0000   1.0000   1.0000   1.0000   1.0000   1.0000   1.0021   1.0028
     1.0191   1.0588   1.0585   1.0511   1.0508   1.0504   1.0412   0.3177
     0.2266   0.2264   0.2230   0.2228   0.2010   0.1514   0.1300   0.0632
     0.0317   0.0087   0.0087   0.0000   0.0000

     the Fermi energy is     0.2765 ev

!    total energy              =   -2633.23126112 Ry

     total all-electron energy =    -20363.603545 Ry
     estimated scf accuracy    <       0.00000606 Ry
     smearing contrib. (-TS)   =      -0.03934734 Ry
     internal energy E=F+TS    =   -2633.19191378 Ry

     The total energy is F=E-TS. E is the sum of the following terms:
     one-electron contribution =  -10061.32667463 Ry
     hartree contribution      =    5029.77851290 Ry
     xc contribution           =    -276.77296216 Ry
     ewald contribution        =    3284.31463922 Ry
     one-center paw contrib.   =    -609.18542909 Ry
      -> PAW hartree energy AE =    1652.69962310 Ry
      -> PAW hartree energy PS =   -1645.80377618 Ry
      -> PAW xc energy AE      =    -888.75224720 Ry
      -> PAW xc energy PS      =     272.67097119 Ry
      -> total E_H with PAW    =    5036.67435981 Ry
      -> total E_XC with PAW   =    -892.85423817 Ry

     total magnetization       =     0.02 Bohr mag/cell
     absolute magnetization    =     0.05 Bohr mag/cell

     convergence has been achieved in  18 iterations

     negative rho (up, down):  5.697E-04 5.692E-04

     Forces acting on atoms (cartesian axes, Ry/au):

     atom    1 type  1   force =     0.00000000   -0.00013405    0.04184808
     atom    2 type  1   force =    -0.00000000    0.00013405    0.04184808
     atom    3 type  1   force =     0.00022163    0.00000000    0.04203293
     atom    4 type  1   force =    -0.00022163    0.00000000    0.04203293
     atom    5 type  1   force =     0.00000000    0.00000000   -0.04162505
     atom    6 type  1   force =     0.00000000    0.00000000   -0.04225639
     atom    7 type  1   force =     0.00000000    0.00000000   -0.04194029
     atom    8 type  1   force =     0.00000000    0.00000000   -0.04194029
     The non-local contrib.  to forces
     atom    1 type  1   force =     0.00000000   -0.00011144   -0.12717015
     atom    2 type  1   force =     0.00000000    0.00011144   -0.12717015
     atom    3 type  1   force =     0.00020778    0.00000000   -0.12697859
     atom    4 type  1   force =    -0.00020778   -0.00000000   -0.12697859
     atom    5 type  1   force =     0.00000000    0.00000000    0.12531010
     atom    6 type  1   force =     0.00000000    0.00000000    0.12469000
     atom    7 type  1   force =     0.00000000    0.00000000    0.12498365
     atom    8 type  1   force =     0.00000000   -0.00000000    0.12498365
     The ionic contribution  to forces
     atom    1 type  1   force =     0.00000000    0.00000009 -121.48256798
     atom    2 type  1   force =     0.00000000    0.00000009 -121.48256798
     atom    3 type  1   force =     0.00000000   -0.00000009 -121.48256798
     atom    4 type  1   force =    -0.00000000   -0.00000009 -121.48256798
     atom    5 type  1   force =     0.00000000    0.00000009  121.48256798
     atom    6 type  1   force =    -0.00000000    0.00000009  121.48256798
     atom    7 type  1   force =    -0.00000000   -0.00000009  121.48256798
     atom    8 type  1   force =     0.00000000   -0.00000009  121.48256798
     The local contribution  to forces
     atom    1 type  1   force =     0.00000000   -0.00059493  121.64321066
     atom    2 type  1   force =     0.00000000    0.00059331  121.64321066
     atom    3 type  1   force =     0.00096707   -0.00000162  121.64295117
     atom    4 type  1   force =    -0.00096707   -0.00000162  121.64295117
     atom    5 type  1   force =    -0.00000000   -0.00000000 -121.64895063
     atom    6 type  1   force =     0.00000000   -0.00000000 -121.64917049
     atom    7 type  1   force =     0.00000000   -0.00000081 -121.64948299
     atom    8 type  1   force =    -0.00000000   -0.00000081 -121.64948299
     The core correction contribution to forces
     atom    1 type  1   force =     0.00000000   -0.00000015    0.00027775
     atom    2 type  1   force =    -0.00000000    0.00000021    0.00027775
     atom    3 type  1   force =     0.00000035    0.00000006    0.00027110
     atom    4 type  1   force =    -0.00000035    0.00000006    0.00027110
     atom    5 type  1   force =     0.00000000   -0.00000000   -0.00027361
     atom    6 type  1   force =     0.00000000   -0.00000000   -0.00026250
     atom    7 type  1   force =     0.00000000    0.00000003   -0.00027815
     atom    8 type  1   force =    -0.00000000    0.00000003   -0.00027815
     The Hubbard contrib.    to forces
     atom    1 type  1   force =     0.00000000    0.00000000    0.00000000
     atom    2 type  1   force =     0.00000000    0.00000000    0.00000000
     atom    3 type  1   force =     0.00000000    0.00000000    0.00000000
     atom    4 type  1   force =     0.00000000    0.00000000    0.00000000
     atom    5 type  1   force =     0.00000000    0.00000000    0.00000000
     atom    6 type  1   force =     0.00000000    0.00000000    0.00000000
     atom    7 type  1   force =     0.00000000    0.00000000    0.00000000
     atom    8 type  1   force =     0.00000000    0.00000000    0.00000000
     The SCF correction term to forces
     atom    1 type  1   force =    -0.00000001    0.00057170    0.00720905
     atom    2 type  1   force =     0.00000001   -0.00057170    0.00720905
     atom    3 type  1   force =    -0.00095356    0.00000001    0.00746847
     atom    4 type  1   force =     0.00095356   -0.00000001    0.00746847
     atom    5 type  1   force =    -0.00000000   -0.00000000   -0.00116765
     atom    6 type  1   force =    -0.00000000   -0.00000000   -0.00097013
     atom    7 type  1   force =    -0.00000000    0.00000000   -0.00061952
     atom    8 type  1   force =     0.00000000    0.00000000   -0.00061956

     Total force =     0.118627     Total SCF correction =     0.014867
     SCF correction compared to forces is large: reduce conv_thr to get better values

     Computing stress (Cartesian axis) and pressure

     negative rho (up, down):  5.697E-04 5.692E-04
          total   stress  (Ry/bohr**3)                   (kbar)     P=      -79.27
  -0.00086128   0.00000000   0.00000000         -126.70        0.00        0.00
   0.00000000  -0.00038980   0.00000000            0.00      -57.34        0.00
   0.00000000   0.00000000  -0.00036551            0.00        0.00      -53.77

     kinetic stress (kbar)  17716.42      0.00      0.00
                                0.00  17892.94     -0.00
                                0.00     -0.00  17654.45

     local   stress (kbar)-472120.72     -0.00     -0.00
                               -0.00-474325.91     -0.00
                               -0.00     -0.00 503206.70

     nonloc. stress (kbar) -13880.93      0.00      0.00
                                0.00 -13995.12      0.00
                                0.00      0.00 -13680.76

     hartree stress (kbar) 249062.70      0.00      0.00
                                0.00 249898.46      0.00
                                0.00      0.00-230279.02

     exc-cor stress (kbar)   -542.91      0.00     -0.00
                                0.00   -540.32      0.00
                               -0.00      0.00   -551.99

     corecor stress (kbar)  -3730.45      0.00     -0.00
                                0.00  -3729.34     -0.00
                               -0.00     -0.00  -3734.46

     ewald   stress (kbar) 223369.20      0.00     -0.00
                                0.00 224741.95      0.00
                               -0.00      0.00-272668.69

     hubbard stress (kbar)      0.00      0.00      0.00
                                0.00      0.00      0.00
                                0.00      0.00      0.00

     DFT-D   stress (kbar)      0.00      0.00      0.00
                                0.00      0.00      0.00
                                0.00      0.00      0.00

     XDM     stress (kbar)      0.00      0.00      0.00
                                0.00      0.00      0.00
                                0.00      0.00      0.00

     dft-nl  stress (kbar)      0.00      0.00      0.00
                                0.00      0.00      0.00
                                0.00      0.00      0.00

     TS-vdW  stress (kbar)      0.00      0.00      0.00
                                0.00      0.00      0.00
                                0.00      0.00      0.00

[...]

                                0.00      0.00      0.00

     Writing all to output data dir ./pwscf.save/

     General routines

     Parallel routines

     PAW routines

   This run was terminated on:  16:49:52   1Jul2025

   JOB DONE.